GLPSOL--GLPK LP/MIP Solver 5.0
Parameter(s) specified in the command line:
 --lp ../modeles/5_254.lp --log 5_254.log
Reading problem data from '../modeles/5_254.lp'...
1291 rows, 2550 columns, 8905 non-zeros
1270 integer variables, all of which are binary
3852 lines were read
GLPK Integer Optimizer 5.0
1291 rows, 2550 columns, 8905 non-zeros
1270 integer variables, all of which are binary
Preprocessing...
1250 constraint coefficient(s) were reduced
1291 rows, 2545 columns, 8900 non-zeros
1270 integer variables, all of which are binary
Scaling...
 A: min|aij| =  2.480e-04  max|aij| =  4.000e+00  ratio =  1.613e+04
GM: min|aij| =  8.874e-02  max|aij| =  1.127e+01  ratio =  1.270e+02
EQ: min|aij| =  7.874e-03  max|aij| =  1.000e+00  ratio =  1.270e+02
2N: min|aij| =  7.812e-03  max|aij| =  1.750e+00  ratio =  2.240e+02
Constructing initial basis...
Size of triangular part is 1291
Solving LP relaxation...
GLPK Simplex Optimizer 5.0
1291 rows, 2545 columns, 8900 non-zeros
      0: obj =   1.000000000e+01 inf =   2.450e+01 (11)
     84: obj =   3.863051499e-01 inf =   0.000e+00 (0)
*   314: obj =  -2.235736980e+00 inf =   2.407e-16 (0)
OPTIMAL LP SOLUTION FOUND
Integer optimization begins...
Long-step dual simplex will be used
+   314: mip =     not found yet >=              -inf        (1; 0)
+  1031: >>>>>  -2.235736980e+00 >=  -2.235736980e+00   0.0% (715; 0)
+  1031: mip =  -2.235736980e+00 >=     tree is empty   0.0% (0; 1429)
INTEGER OPTIMAL SOLUTION FOUND
Time used:   1.3 secs
Memory used: 3.8 Mb (3971831 bytes)
